Set parameter TokenServer to value "hpc-licenses.hpcc.usc.edu"
Set parameter TimeLimit to value 3600
Gurobi Optimizer version 9.5.1 build v9.5.1rc2 (linux64)
Thread count: 20 physical cores, 20 logical processors, using up to 20 threads
Optimize a model with 6007 rows, 4529 columns and 24534 nonzeros
Model fingerprint: 0xa0eacb2d
Variable types: 4506 continuous, 23 integer (23 binary)
Coefficient statistics:
  Matrix range     [1e+00, 1e+00]
  Objective range  [8e-04, 1e+00]
  Bounds range     [1e+00, 1e+00]
  RHS range        [1e+00, 2e+02]
Found heuristic solution: objective 255.4944981
Presolve removed 1520 rows and 1515 columns
Presolve time: 0.07s
Presolved: 4487 rows, 3014 columns, 21975 nonzeros
Variable types: 2994 continuous, 20 integer (20 binary)

Root relaxation: objective 2.750160e+02, 2496 iterations, 0.12 seconds (0.15 work units)

    Nodes    |    Current Node    |     Objective Bounds      |     Work
 Expl Unexpl |  Obj  Depth IntInf | Incumbent    BestBd   Gap | It/Node Time

     0     0  275.01599    0    2  255.49450  275.01599  7.64%     -    0s
H    0     0                     262.4916344  275.01599  4.77%     -    0s
     0     0  274.92767    0    2  262.49163  274.92767  4.74%     -    0s
H    0     0                     264.9490056  274.49084  3.60%     -    0s
     0     0  274.49084    0    2  264.94901  274.49084  3.60%     -    0s
     0     0  274.37341    0    3  264.94901  274.37341  3.56%     -    0s
     0     0  273.92450    0    3  264.94901  273.92450  3.39%     -    0s
     0     0  273.90864    0    3  264.94901  273.90864  3.38%     -    0s
     0     0  273.81871    0    3  264.94901  273.81871  3.35%     -    0s
     0     0  273.75863    0    3  264.94901  273.75863  3.33%     -    0s
     0     0  273.70558    0    4  264.94901  273.70558  3.31%     -    0s
H    0     0                     272.9691177  273.46821  0.18%     -    0s
     0     0  273.46821    0    2  272.96912  273.46821  0.18%     -    0s
     0     0  273.46821    0    4  272.96912  273.46821  0.18%     -    0s
     0     0  273.46821    0    2  272.96912  273.46821  0.18%     -    0s
     0     0  273.33390    0    2  272.96912  273.33390  0.13%     -    1s
     0     0  273.33390    0    2  272.96912  273.33390  0.13%     -    1s
     0     0  273.33390    0    2  272.96912  273.33390  0.13%     -    1s
     0     0  273.33390    0    2  272.96912  273.33390  0.13%     -    2s
     0     0  273.33390    0    3  272.96912  273.33390  0.13%     -    2s
     0     0  273.33390    0    3  272.96912  273.33390  0.13%     -    2s
     0     0  273.32977    0    3  272.96912  273.32977  0.13%     -    2s
     0     0  273.31751    0    3  272.96912  273.31751  0.13%     -    2s
     0     0  273.31751    0    3  272.96912  273.31751  0.13%     -    2s
     0     0  272.96912    0    4  272.96912  272.96912  0.00%     -    2s

Cutting planes:
  Gomory: 3
  MIR: 416
  RLT: 6
  Relax-and-lift: 1

Explored 1 nodes (6917 simplex iterations) in 2.44 seconds (1.20 work units)
Thread count was 20 (of 20 available processors)

Solution count 4: 272.969 264.949 262.492 255.494 

Optimal solution found (tolerance 1.00e-04)
Best objective 2.729691176863e+02, best bound 2.729691176863e+02, gap 0.0000%



#########node  1
V1.6
#########node  2
0.05612244897959174,0.9438775510204083
#########node  3
1.0,0.0


Total Solving Time 2.848733425140381
obj value 272.9691176862522
Policy Regret train (Sum) 7.333573780976075
Best Treatment Found train (%) 64.2
treatment classification acc train (%) 50.6
Policy Regret test (Sum) 28.73848887990478
Best Treatment Found test (%) 83.74000000000001
treatment classification acc test (%) 50.57000000000001
